c This is a random SAT instance with 10 variables and 20 clauses
p cnf 10 20
-7 -8 5 0
6 4 0
-9 -5 0
-10 0
-7 -10 5 -3 -4 -1 -2 0
1 -9 0
8 -8 -9 -6 -5 0
-8 -9 -5 -6 -4 6 10 8 -1 0
-6 2 -8 10 -3 6 -7 9 0
-1 -6 -10 -5 -3 10 -7 7 -2 0
-10 -3 -1 2 9 -6 6 0
3 7 -9 -2 -8 -6 8 6 0
8 -6 1 7 -10 2 6 -1 3 5 0
10 -9 2 6 -1 -10 7 -4 0
6 4 1 10 -1 5 -4 -8 -9 0
8 -5 5 0
-1 -9 -10 7 -5 0
2 -8 -4 0
9 -8 6 -7 -2 8 5 0
6 1 0